letting n =  10
letting blocks =  [[1, 8], [1, 10], [2, 2], [2, 5], [2, 7], [2, 8], [2, 9], [2, 10], [3, 5], [3, 8], [3, 9], [4, 8], [4, 9], [4, 10], [5, 3], [5, 10], [6, 2], [6, 3], [6, 7], [7, 1], [7, 3], [7, 4], [7, 7], [8, 1], [8, 6], [9, 4], [9, 5], [9, 6], [9, 8], [9, 10], [10, 1], [10, 2], [10, 4], [10, 8]]
